p tw 30 45
3 4
26 27
16 17
4 12
12 13
20 26
21 22
22 23
3 13
8 9
17 18
27 28
25 26
2 14
10 21
13 14
19 27
1 15
1 30
18 19
4 5
18 28
5 6
14 15
23 24
9 10
1 2
10 11
8 23
9 22
17 29
19 20
28 29
6 7
15 16
24 25
16 30
6 25
7 24
20 21
29 30
5 11
2 3
11 12
7 8
